%chk=rhf.chk
# rhf/sto-3g gfinput IOP(6/7=1)

water

0 1
O
H 1 0.9572
H 1 0.9572 2 104.5

